n=10;
m=33;
k=4;
initial_edges=[
(1, 9),
(1, 3),
(1, 4),
(1, 6),
(1, 8),
(1, 10),
(1, 2),
(1, 7),
(1, 5),
(2, 3),
(2, 8),
(2, 9),
(2, 5),
(2, 6),
(2, 4),
(2, 7),
(3, 5),
(3, 7),
(3, 10),
(4, 5),
(4, 8),
(4, 10),
(4, 9),
(4, 7),
(4, 6),
(5, 9),
(6, 7),
(6, 9),
(6, 8),
(7, 10),
(7, 9),
(8, 9),
(8, 10),
];